;; lemma to synthesize
;; TODO: must be generated from problem parameters
(synth-fun lemma ((x Int) (yc Int) (zc Int)) Bool
           ((Start Bool) (BLeaf Bool) (Loc Int))

           ((Start Bool
                  (BLeaf
                  (=> BLeaf BLeaf)))
           (BLeaf Bool (
                  (lseg_p Loc Loc)))
           (Loc Int (x yc zc)))
)

(synth-fun rswitch () Int
           ((Start Int))
           ((Start Int (0)))
)
